982436
52,99,215,65,23,140,127,221,42,66,38,156,73,82,139,134,70,117,48,206,30,146,126,162,177,198,158,15,137,7,14,29,136,188,184,59,2,207,22,68,225,176,97,112,159,41,72,208,121,151,125,50,190,163,57,138,10,213,18,124,193,96,63,219,119,164,45,110,47,224,12,155,222,144,116,143,90,25,21,36,49,86,101,61,93,107,34,150,214,204,74,160,178,27,54,39,80,168,26,154,111,132,228,161,0,62,19,35,182,6,209,71,31,4,43,210,67,165,95,88,106,33,77,129,191,195,115,183,100,8,5,202,32,223,152,128,37,216,169,170,149,185,227,108,89,141,3,20,87,145,11,186,102,179,157,81,1,171,167,16,175,46,133,226,13,64,153,109,200,9,113,197,199,173,196,142,75,28,83,118,192,194,85,180,187,166,130,205,135,217,69,172,147,123,84,122,60,79,131,92,203,114,181,24,58,220,56,94,78,51,212,44,211,103,229,148,120,76,40,105,218,189,98,201,104,174,53,55,17,91
